benchmarks_CP/INST_64x64/50/inst64x64_50_25.dzn
S=8;
start=[|
15,	-1,	-1,	-1,	49,	-1,	-1,	-1,	33,	-1,	-1,	-1,	52,	30,	20,	-1,	41,	-1,	31,	57,	37,	-1,	47,	60,	-1,	-1,	17,	62,	-1,	-1,	-1,	25,	51,	-1,	16,	-1,	24,	55,	22,	-1,	2,	-1,	-1,	38,	27,	12,	-1,	39,	-1,	-1,	-1,	36,	14,	-1,	34,	-1,	3,	-1,	-1,	21,	10,	64,	58,	11|
53,	-1,	12,	8,	-1,	50,	51,	-1,	-1,	27,	54,	39,	10,	-1,	60,	56,	-1,	4,	46,	62,	-1,	59,	11,	-1,	1,	-1,	-1,	64,	-1,	63,	-1,	-1,	-1,	-1,	31,	33,	7,	-1,	-1,	38,	-1,	23,	-1,	-1,	-1,	16,	30,	-1,	-1,	22,	19,	48,	-1,	57,	49,	47,	28,	-1,	36,	20,	41,	24,	-1,	6|
-1,	-1,	21,	-1,	20,	-1,	43,	52,	3,	-1,	-1,	11,	41,	-1,	44,	-1,	12,	24,	58,	-1,	-1,	39,	-1,	29,	-1,	46,	-1,	50,	-1,	-1,	-1,	-1,	36,	15,	40,	49,	25,	-1,	9,	-1,	59,	42,	17,	63,	61,	-1,	-1,	18,	4,	10,	60,	-1,	-1,	13,	-1,	-1,	-1,	-1,	-1,	-1,	-1,	-1,	-1,	-1|
-1,	9,	-1,	40,	-1,	-1,	-1,	36,	4,	-1,	15,	-1,	-1,	2,	46,	-1,	51,	32,	-1,	18,	-1,	21,	-1,	-1,	-1,	-1,	19,	58,	-1,	14,	38,	37,	60,	-1,	1,	-1,	-1,	-1,	-1,	6,	-1,	-1,	45,	54,	-1,	-1,	10,	-1,	-1,	-1,	-1,	-1,	26,	28,	23,	39,	-1,	17,	-1,	43,	49,	47,	-1,	27|
14,	-1,	16,	-1,	-1,	-1,	11,	10,	-1,	1,	-1,	-1,	-1,	-1,	18,	13,	19,	-1,	50,	23,	56,	-1,	36,	61,	20,	-1,	-1,	2,	60,	34,	-1,	28,	-1,	47,	30,	-1,	-1,	44,	42,	52,	-1,	-1,	-1,	62,	-1,	-1,	37,	-1,	-1,	-1,	46,	-1,	-1,	3,	63,	64,	-1,	25,	-1,	31,	-1,	-1,	8,	-1|
3,	41,	28,	54,	-1,	42,	-1,	17,	12,	-1,	55,	-1,	-1,	-1,	8,	16,	-1,	-1,	-1,	-1,	-1,	-1,	-1,	-1,	51,	18,	44,	-1,	29,	-1,	-1,	-1,	45,	13,	-1,	2,	39,	-1,	-1,	64,	47,	46,	56,	-1,	-1,	-1,	-1,	-1,	-1,	58,	-1,	-1,	24,	-1,	15,	-1,	-1,	-1,	40,	-1,	14,	48,	-1,	-1|
-1,	-1,	-1,	39,	-1,	-1,	26,	-1,	32,	58,	-1,	-1,	-1,	38,	-1,	-1,	-1,	-1,	6,	14,	-1,	-1,	-1,	-1,	40,	-1,	33,	16,	13,	9,	49,	-1,	-1,	-1,	48,	-1,	23,	10,	27,	4,	-1,	29,	-1,	-1,	41,	20,	64,	-1,	-1,	-1,	51,	-1,	25,	52,	21,	18,	-1,	-1,	34,	5,	-1,	-1,	60,	-1|
57,	-1,	-1,	-1,	-1,	22,	7,	-1,	21,	-1,	-1,	-1,	53,	-1,	-1,	40,	27,	-1,	2,	49,	35,	-1,	-1,	-1,	-1,	56,	-1,	8,	47,	26,	36,	11,	14,	20,	-1,	61,	28,	63,	29,	-1,	-1,	-1,	-1,	-1,	-1,	-1,	5,	-1,	41,	16,	-1,	55,	12,	6,	17,	38,	33,	4,	59,	-1,	62,	13,	-1,	32|
8,	17,	45,	36,	61,	35,	38,	-1,	-1,	15,	-1,	31,	20,	-1,	-1,	-1,	50,	-1,	-1,	-1,	46,	-1,	-1,	12,	-1,	47,	64,	7,	-1,	42,	52,	57,	-1,	49,	29,	-1,	-1,	28,	-1,	27,	53,	-1,	-1,	13,	32,	-1,	62,	22,	-1,	-1,	-1,	5,	-1,	16,	30,	37,	6,	-1,	-1,	23,	9,	-1,	-1,	44|
23,	-1,	-1,	-1,	55,	-1,	28,	-1,	46,	-1,	-1,	10,	-1,	17,	-1,	2,	21,	60,	15,	40,	-1,	-1,	-1,	1,	-1,	9,	-1,	44,	-1,	8,	20,	-1,	62,	37,	-1,	-1,	-1,	58,	-1,	-1,	-1,	-1,	-1,	-1,	33,	64,	-1,	-1,	-1,	45,	-1,	-1,	-1,	24,	42,	12,	57,	-1,	-1,	61,	-1,	-1,	25,	39|
-1,	-1,	-1,	5,	2,	10,	-1,	-1,	13,	-1,	44,	-1,	32,	45,	-1,	8,	28,	17,	26,	-1,	-1,	3,	29,	6,	-1,	41,	-1,	38,	49,	60,	-1,	35,	63,	-1,	36,	-1,	61,	-1,	7,	23,	-1,	50,	42,	-1,	-1,	19,	-1,	-1,	-1,	-1,	-1,	-1,	-1,	9,	27,	-1,	-1,	31,	-1,	-1,	24,	-1,	-1,	47|
-1,	37,	63,	-1,	-1,	20,	57,	49,	-1,	-1,	14,	59,	42,	-1,	6,	-1,	35,	-1,	54,	-1,	-1,	-1,	2,	52,	46,	40,	48,	-1,	22,	-1,	-1,	-1,	55,	-1,	-1,	-1,	-1,	-1,	-1,	-1,	60,	-1,	-1,	7,	-1,	-1,	-1,	-1,	-1,	-1,	47,	56,	28,	-1,	-1,	-1,	10,	26,	32,	17,	-1,	-1,	-1,	-1|
-1,	50,	-1,	-1,	59,	-1,	60,	7,	62,	5,	-1,	-1,	4,	-1,	61,	-1,	-1,	-1,	-1,	-1,	-1,	11,	-1,	22,	-1,	6,	-1,	26,	1,	17,	-1,	36,	33,	-1,	32,	-1,	18,	39,	45,	-1,	56,	58,	-1,	-1,	48,	-1,	34,	63,	-1,	-1,	-1,	38,	-1,	-1,	-1,	21,	-1,	15,	42,	-1,	-1,	-1,	14,	-1|
-1,	24,	-1,	47,	-1,	62,	52,	-1,	-1,	-1,	-1,	-1,	-1,	-1,	-1,	64,	-1,	13,	-1,	7,	-1,	-1,	-1,	-1,	45,	-1,	-1,	-1,	-1,	15,	-1,	-1,	-1,	44,	-1,	-1,	17,	-1,	16,	-1,	38,	36,	-1,	-1,	-1,	-1,	4,	23,	-1,	-1,	57,	-1,	-1,	61,	31,	32,	35,	48,	-1,	-1,	-1,	-1,	40,	20|
32,	-1,	-1,	-1,	56,	-1,	-1,	51,	-1,	37,	33,	-1,	48,	-1,	39,	29,	-1,	-1,	36,	-1,	31,	10,	24,	25,	61,	55,	16,	28,	-1,	59,	-1,	-1,	-1,	57,	41,	22,	-1,	-1,	-1,	-1,	52,	35,	1,	47,	26,	-1,	-1,	30,	49,	19,	6,	-1,	-1,	-1,	-1,	-1,	-1,	62,	-1,	11,	-1,	-1,	45,	13|
34,	12,	29,	-1,	64,	26,	-1,	15,	16,	-1,	-1,	56,	47,	3,	-1,	-1,	58,	-1,	-1,	8,	-1,	42,	-1,	-1,	43,	-1,	-1,	32,	62,	-1,	2,	-1,	20,	-1,	-1,	-1,	-1,	-1,	24,	-1,	28,	-1,	-1,	-1,	14,	17,	-1,	-1,	-1,	-1,	-1,	-1,	-1,	-1,	4,	-1,	54,	-1,	-1,	-1,	59,	-1,	63,	-1|
35,	-1,	-1,	-1,	18,	-1,	-1,	24,	42,	40,	56,	37,	1,	41,	33,	57,	-1,	-1,	63,	-1,	58,	2,	50,	-1,	38,	34,	-1,	-1,	64,	12,	-1,	-1,	-1,	39,	-1,	20,	55,	-1,	11,	-1,	62,	14,	51,	5,	-1,	-1,	-1,	-1,	-1,	-1,	13,	-1,	31,	-1,	-1,	61,	53,	9,	25,	-1,	-1,	46,	28,	59|
-1,	-1,	38,	44,	-1,	-1,	-1,	56,	28,	39,	10,	3,	49,	34,	-1,	46,	16,	-1,	19,	-1,	45,	-1,	62,	14,	-1,	1,	59,	37,	-1,	21,	31,	23,	13,	-1,	57,	17,	54,	-1,	-1,	-1,	24,	-1,	-1,	61,	25,	35,	-1,	-1,	-1,	7,	11,	53,	-1,	-1,	-1,	27,	4,	-1,	8,	-1,	58,	55,	29,	-1|
30,	39,	10,	-1,	11,	45,	23,	13,	-1,	-1,	36,	58,	-1,	-1,	21,	-1,	24,	15,	-1,	-1,	-1,	47,	-1,	3,	-1,	-1,	-1,	-1,	-1,	-1,	44,	-1,	42,	27,	-1,	37,	56,	-1,	18,	-1,	-1,	-1,	-1,	-1,	-1,	1,	-1,	-1,	-1,	-1,	-1,	-1,	9,	48,	-1,	26,	-1,	-1,	16,	35,	40,	-1,	-1,	50|
-1,	-1,	49,	31,	-1,	-1,	-1,	-1,	30,	-1,	-1,	-1,	-1,	14,	47,	-1,	-1,	61,	-1,	43,	-1,	33,	42,	64,	-1,	-1,	-1,	-1,	11,	-1,	-1,	18,	-1,	16,	-1,	-1,	-1,	-1,	44,	40,	48,	-1,	21,	57,	38,	-1,	27,	-1,	37,	-1,	-1,	-1,	29,	12,	58,	-1,	-1,	-1,	52,	-1,	22,	-1,	-1,	1|
-1,	58,	-1,	-1,	15,	-1,	-1,	37,	48,	53,	-1,	-1,	23,	-1,	22,	62,	-1,	-1,	27,	-1,	18,	28,	26,	-1,	35,	45,	-1,	3,	-1,	-1,	-1,	43,	-1,	-1,	-1,	29,	-1,	-1,	4,	-1,	7,	34,	-1,	-1,	-1,	59,	-1,	54,	-1,	52,	-1,	-1,	33,	44,	10,	-1,	-1,	-1,	63,	12,	21,	-1,	-1,	38|
16,	-1,	-1,	17,	-1,	60,	-1,	21,	-1,	52,	-1,	-1,	64,	61,	-1,	55,	-1,	-1,	20,	-1,	36,	22,	-1,	-1,	-1,	-1,	-1,	-1,	-1,	28,	-1,	-1,	-1,	3,	7,	10,	-1,	31,	53,	58,	13,	19,	-1,	-1,	63,	18,	-1,	-1,	50,	-1,	-1,	62,	-1,	1,	-1,	-1,	-1,	39,	57,	-1,	34,	-1,	42,	56|
-1,	8,	-1,	-1,	47,	2,	62,	-1,	51,	44,	-1,	32,	-1,	-1,	-1,	54,	31,	1,	7,	56,	-1,	60,	-1,	11,	49,	26,	-1,	-1,	55,	52,	61,	6,	-1,	-1,	-1,	-1,	43,	35,	48,	30,	-1,	-1,	-1,	53,	-1,	-1,	9,	50,	22,	57,	14,	21,	-1,	39,	5,	-1,	64,	-1,	-1,	-1,	19,	-1,	-1,	10|
43,	-1,	-1,	-1,	-1,	27,	-1,	-1,	-1,	20,	-1,	-1,	31,	26,	63,	15,	9,	38,	21,	44,	-1,	40,	53,	-1,	-1,	-1,	-1,	48,	-1,	-1,	-1,	60,	23,	-1,	22,	12,	19,	-1,	6,	50,	39,	52,	-1,	10,	55,	36,	-1,	56,	-1,	-1,	32,	17,	54,	64,	-1,	-1,	62,	14,	-1,	-1,	-1,	11,	24,	-1|
-1,	-1,	-1,	-1,	-1,	-1,	-1,	-1,	54,	-1,	-1,	-1,	2,	8,	-1,	-1,	18,	-1,	-1,	25,	-1,	58,	19,	28,	-1,	-1,	-1,	40,	-1,	7,	64,	-1,	10,	61,	-1,	41,	-1,	33,	43,	51,	1,	-1,	22,	-1,	6,	-1,	39,	14,	-1,	23,	-1,	44,	-1,	-1,	-1,	42,	-1,	-1,	-1,	-1,	35,	32,	62,	45|
60,	-1,	-1,	10,	-1,	-1,	-1,	43,	61,	50,	40,	20,	-1,	31,	-1,	-1,	-1,	34,	9,	24,	23,	46,	-1,	26,	-1,	-1,	5,	45,	-1,	27,	22,	29,	-1,	56,	62,	-1,	-1,	47,	28,	63,	54,	-1,	19,	-1,	4,	25,	-1,	-1,	-1,	30,	-1,	-1,	53,	36,	41,	-1,	8,	55,	-1,	-1,	44,	-1,	52,	7|
46,	-1,	-1,	45,	54,	30,	-1,	-1,	38,	-1,	37,	-1,	-1,	-1,	14,	33,	4,	-1,	40,	-1,	16,	-1,	15,	55,	56,	-1,	28,	10,	36,	35,	39,	-1,	50,	53,	-1,	26,	-1,	-1,	-1,	21,	63,	-1,	48,	-1,	18,	-1,	-1,	24,	-1,	-1,	64,	-1,	1,	17,	6,	31,	12,	-1,	13,	-1,	42,	43,	-1,	22|
-1,	55,	27,	-1,	19,	7,	15,	-1,	64,	-1,	-1,	-1,	-1,	52,	5,	-1,	54,	-1,	-1,	12,	-1,	49,	17,	-1,	-1,	-1,	-1,	-1,	8,	16,	-1,	31,	-1,	2,	3,	-1,	-1,	-1,	-1,	1,	30,	-1,	-1,	45,	46,	-1,	-1,	-1,	21,	-1,	56,	13,	10,	-1,	-1,	-1,	41,	33,	-1,	-1,	-1,	20,	-1,	-1|
-1,	-1,	44,	-1,	-1,	18,	39,	41,	63,	-1,	9,	45,	-1,	-1,	-1,	-1,	1,	35,	-1,	-1,	-1,	-1,	-1,	-1,	52,	50,	26,	-1,	20,	57,	33,	-1,	16,	-1,	5,	4,	49,	22,	-1,	13,	-1,	-1,	34,	-1,	59,	-1,	29,	-1,	-1,	14,	-1,	-1,	-1,	-1,	3,	-1,	-1,	40,	48,	37,	23,	-1,	-1,	19|
1,	11,	8,	-1,	5,	52,	22,	-1,	-1,	-1,	21,	-1,	18,	-1,	26,	-1,	-1,	42,	53,	31,	-1,	-1,	30,	44,	24,	-1,	15,	-1,	41,	54,	13,	2,	37,	7,	-1,	32,	12,	-1,	-1,	45,	-1,	33,	16,	64,	-1,	50,	-1,	-1,	-1,	59,	-1,	27,	-1,	49,	-1,	-1,	58,	3,	-1,	-1,	60,	-1,	-1,	36|
-1,	-1,	-1,	-1,	50,	38,	56,	-1,	-1,	-1,	-1,	-1,	16,	49,	7,	-1,	22,	33,	-1,	3,	52,	14,	5,	-1,	-1,	44,	-1,	42,	19,	1,	58,	-1,	8,	9,	-1,	-1,	-1,	-1,	-1,	-1,	36,	13,	-1,	21,	-1,	23,	-1,	27,	55,	61,	18,	37,	-1,	-1,	-1,	-1,	17,	-1,	6,	59,	-1,	25,	34,	-1|
28,	-1,	-1,	-1,	33,	58,	3,	63,	-1,	22,	60,	-1,	-1,	-1,	-1,	30,	-1,	62,	57,	-1,	7,	37,	-1,	-1,	-1,	-1,	34,	61,	46,	11,	14,	-1,	64,	42,	55,	15,	-1,	36,	20,	-1,	-1,	-1,	-1,	-1,	-1,	31,	49,	40,	43,	-1,	-1,	-1,	47,	38,	-1,	-1,	2,	-1,	21,	4,	50,	-1,	16,	18|
48,	-1,	-1,	-1,	-1,	28,	-1,	12,	8,	60,	-1,	17,	-1,	-1,	-1,	-1,	-1,	-1,	29,	-1,	42,	61,	-1,	-1,	-1,	22,	46,	-1,	2,	-1,	-1,	-1,	41,	-1,	45,	-1,	-1,	-1,	-1,	59,	-1,	56,	18,	-1,	-1,	57,	55,	7,	-1,	4,	-1,	-1,	19,	26,	13,	-1,	-1,	54,	51,	53,	37,	40,	-1,	15|
-1,	57,	-1,	19,	-1,	-1,	30,	-1,	44,	38,	-1,	5,	-1,	-1,	42,	63,	-1,	-1,	51,	-1,	40,	-1,	56,	37,	11,	-1,	31,	-1,	9,	45,	16,	10,	15,	29,	58,	-1,	13,	25,	54,	-1,	17,	-1,	23,	1,	-1,	62,	21,	36,	27,	-1,	-1,	49,	-1,	41,	-1,	-1,	59,	60,	-1,	-1,	-1,	-1,	-1,	-1|
-1,	-1,	51,	-1,	24,	37,	-1,	-1,	-1,	11,	-1,	14,	-1,	-1,	3,	36,	-1,	59,	-1,	-1,	-1,	4,	-1,	45,	27,	-1,	12,	49,	43,	5,	26,	48,	17,	23,	-1,	-1,	-1,	1,	-1,	20,	40,	15,	-1,	52,	53,	34,	-1,	44,	-1,	-1,	-1,	42,	50,	-1,	-1,	-1,	-1,	-1,	41,	19,	39,	-1,	57,	-1|
55,	-1,	42,	11,	-1,	17,	40,	-1,	-1,	61,	-1,	-1,	-1,	-1,	23,	-1,	-1,	-1,	5,	26,	60,	50,	-1,	-1,	-1,	-1,	18,	-1,	6,	41,	37,	-1,	-1,	-1,	4,	52,	31,	16,	-1,	-1,	43,	48,	-1,	33,	-1,	8,	-1,	-1,	-1,	2,	-1,	63,	30,	45,	57,	29,	13,	36,	62,	9,	25,	44,	22,	14|
-1,	38,	26,	-1,	7,	-1,	-1,	-1,	52,	16,	-1,	41,	37,	25,	27,	-1,	-1,	-1,	-1,	-1,	17,	55,	12,	49,	36,	-1,	50,	14,	-1,	-1,	29,	-1,	-1,	-1,	9,	-1,	21,	57,	63,	44,	22,	39,	-1,	24,	2,	51,	-1,	-1,	-1,	-1,	-1,	31,	-1,	32,	-1,	-1,	47,	46,	-1,	-1,	-1,	-1,	-1,	35|
-1,	13,	20,	60,	9,	15,	27,	62,	-1,	29,	4,	-1,	40,	-1,	45,	-1,	-1,	-1,	-1,	1,	-1,	-1,	-1,	-1,	21,	54,	57,	-1,	28,	-1,	25,	61,	18,	-1,	-1,	-1,	37,	53,	-1,	46,	-1,	-1,	-1,	-1,	-1,	-1,	14,	-1,	39,	24,	33,	-1,	-1,	59,	22,	-1,	31,	52,	11,	-1,	55,	-1,	-1,	5|
-1,	-1,	-1,	-1,	1,	33,	-1,	-1,	-1,	2,	-1,	35,	28,	-1,	-1,	9,	-1,	-1,	-1,	-1,	-1,	57,	-1,	-1,	7,	52,	-1,	-1,	-1,	-1,	-1,	-1,	61,	60,	-1,	-1,	40,	19,	-1,	3,	41,	4,	20,	26,	54,	-1,	63,	37,	-1,	-1,	-1,	34,	15,	51,	-1,	56,	21,	-1,	-1,	6,	30,	18,	10,	8|
-1,	4,	-1,	29,	-1,	-1,	63,	-1,	-1,	-1,	-1,	-1,	51,	21,	-1,	18,	-1,	28,	35,	-1,	-1,	-1,	-1,	2,	53,	3,	60,	19,	-1,	55,	-1,	-1,	-1,	-1,	-1,	48,	-1,	-1,	64,	-1,	-1,	11,	49,	-1,	45,	5,	-1,	25,	-1,	-1,	58,	-1,	61,	62,	-1,	44,	-1,	-1,	26,	-1,	-1,	-1,	27,	-1|
22,	-1,	-1,	30,	29,	-1,	20,	27,	-1,	-1,	51,	-1,	8,	-1,	41,	5,	-1,	31,	3,	-1,	-1,	35,	-1,	-1,	-1,	-1,	-1,	1,	-1,	25,	12,	63,	39,	-1,	-1,	-1,	62,	-1,	13,	28,	-1,	-1,	-1,	-1,	-1,	42,	-1,	-1,	-1,	55,	-1,	18,	58,	37,	-1,	-1,	34,	-1,	-1,	-1,	-1,	7,	56,	-1|
-1,	-1,	15,	-1,	-1,	-1,	-1,	44,	20,	59,	63,	61,	57,	28,	-1,	37,	56,	18,	-1,	-1,	-1,	-1,	-1,	36,	-1,	19,	21,	46,	30,	13,	17,	-1,	-1,	58,	50,	14,	3,	-1,	-1,	47,	-1,	8,	29,	34,	9,	-1,	16,	-1,	-1,	11,	-1,	12,	5,	2,	-1,	-1,	-1,	32,	31,	51,	52,	41,	23,	62|
-1,	-1,	-1,	28,	41,	-1,	35,	-1,	9,	-1,	53,	18,	15,	40,	32,	-1,	-1,	-1,	44,	64,	30,	38,	-1,	-1,	48,	60,	49,	54,	-1,	20,	-1,	-1,	4,	-1,	-1,	-1,	33,	-1,	10,	-1,	25,	-1,	52,	-1,	-1,	63,	2,	21,	3,	-1,	-1,	47,	59,	-1,	-1,	-1,	16,	12,	61,	-1,	-1,	22,	19,	-1|
52,	6,	17,	-1,	-1,	-1,	-1,	31,	23,	47,	46,	2,	56,	16,	-1,	-1,	-1,	-1,	12,	-1,	-1,	-1,	-1,	62,	5,	29,	32,	-1,	-1,	-1,	40,	41,	44,	-1,	21,	11,	-1,	51,	-1,	-1,	19,	61,	-1,	15,	20,	30,	-1,	26,	-1,	38,	53,	-1,	39,	-1,	1,	-1,	-1,	42,	-1,	-1,	-1,	-1,	37,	-1|
-1,	7,	36,	-1,	10,	64,	-1,	26,	45,	-1,	49,	12,	-1,	-1,	-1,	39,	-1,	-1,	-1,	-1,	20,	16,	4,	21,	9,	-1,	-1,	55,	35,	-1,	11,	62,	31,	-1,	-1,	59,	-1,	15,	-1,	-1,	51,	-1,	-1,	-1,	-1,	-1,	-1,	43,	52,	50,	8,	54,	48,	56,	61,	-1,	-1,	-1,	-1,	-1,	-1,	27,	-1,	-1|
37,	1,	-1,	48,	-1,	23,	-1,	16,	-1,	-1,	-1,	-1,	-1,	44,	-1,	-1,	26,	54,	17,	-1,	-1,	19,	10,	-1,	39,	33,	6,	59,	-1,	61,	45,	-1,	35,	-1,	-1,	-1,	60,	64,	52,	-1,	-1,	-1,	50,	14,	13,	-1,	-1,	31,	9,	27,	-1,	-1,	-1,	42,	-1,	51,	-1,	-1,	58,	2,	20,	3,	15,	-1|
33,	18,	9,	-1,	57,	-1,	2,	11,	17,	-1,	-1,	-1,	13,	50,	4,	-1,	-1,	22,	45,	32,	-1,	52,	37,	40,	47,	-1,	-1,	-1,	-1,	56,	28,	7,	-1,	-1,	43,	-1,	-1,	-1,	41,	61,	5,	64,	58,	48,	35,	-1,	-1,	59,	-1,	63,	29,	25,	49,	31,	44,	10,	-1,	1,	-1,	24,	6,	53,	-1,	54|
-1,	-1,	19,	3,	-1,	21,	-1,	61,	-1,	14,	-1,	54,	60,	-1,	64,	1,	-1,	8,	-1,	-1,	50,	25,	63,	-1,	-1,	-1,	43,	-1,	31,	-1,	23,	42,	-1,	48,	12,	6,	26,	29,	2,	-1,	-1,	49,	-1,	17,	24,	-1,	-1,	45,	-1,	41,	-1,	46,	-1,	15,	-1,	-1,	11,	10,	-1,	-1,	28,	-1,	-1,	30|
13,	-1,	-1,	21,	43,	-1,	-1,	-1,	39,	57,	-1,	-1,	45,	55,	-1,	-1,	-1,	37,	4,	17,	63,	-1,	1,	-1,	42,	10,	-1,	-1,	12,	-1,	-1,	22,	-1,	-1,	60,	47,	32,	40,	-1,	-1,	50,	-1,	44,	58,	64,	-1,	36,	41,	53,	-1,	-1,	-1,	6,	54,	-1,	-1,	18,	-1,	-1,	-1,	16,	-1,	61,	49|
17,	-1,	35,	-1,	-1,	61,	4,	-1,	24,	-1,	48,	-1,	46,	-1,	-1,	50,	2,	-1,	-1,	-1,	64,	-1,	-1,	-1,	-1,	-1,	-1,	60,	-1,	38,	18,	16,	-1,	45,	59,	-1,	36,	42,	-1,	31,	-1,	-1,	-1,	29,	11,	47,	40,	34,	25,	-1,	-1,	-1,	56,	5,	39,	-1,	-1,	-1,	-1,	8,	43,	-1,	33,	-1|
-1,	42,	-1,	50,	-1,	-1,	34,	-1,	40,	13,	-1,	22,	-1,	-1,	37,	27,	-1,	-1,	30,	16,	-1,	-1,	39,	-1,	14,	28,	-1,	24,	-1,	19,	-1,	-1,	58,	43,	33,	-1,	10,	4,	-1,	41,	-1,	26,	-1,	-1,	-1,	48,	-1,	-1,	-1,	17,	-1,	-1,	-1,	47,	-1,	-1,	25,	-1,	-1,	54,	-1,	9,	-1,	52|
-1,	29,	-1,	-1,	-1,	-1,	-1,	8,	2,	7,	20,	-1,	17,	-1,	43,	-1,	-1,	-1,	-1,	42,	3,	12,	-1,	54,	31,	-1,	11,	47,	-1,	-1,	48,	46,	-1,	28,	-1,	21,	-1,	-1,	56,	-1,	-1,	-1,	-1,	30,	60,	33,	-1,	-1,	19,	-1,	37,	-1,	41,	-1,	-1,	-1,	22,	34,	53,	-1,	-1,	-1,	-1,	-1|
56,	28,	11,	33,	-1,	-1,	45,	-1,	-1,	-1,	-1,	53,	-1,	-1,	54,	52,	-1,	6,	-1,	50,	57,	5,	55,	59,	-1,	-1,	1,	-1,	-1,	36,	34,	-1,	22,	-1,	17,	63,	-1,	23,	37,	9,	-1,	-1,	10,	-1,	31,	43,	8,	49,	-1,	21,	24,	-1,	-1,	-1,	-1,	2,	-1,	-1,	-1,	42,	15,	26,	12,	58|
-1,	-1,	-1,	-1,	30,	-1,	-1,	-1,	60,	26,	-1,	-1,	-1,	42,	16,	3,	-1,	40,	-1,	19,	22,	34,	27,	-1,	-1,	61,	-1,	-1,	-1,	-1,	-1,	54,	57,	-1,	-1,	8,	44,	-1,	49,	-1,	-1,	-1,	13,	28,	-1,	21,	-1,	20,	31,	-1,	59,	10,	52,	-1,	48,	55,	45,	-1,	-1,	-1,	-1,	-1,	41,	37|
-1,	-1,	-1,	-1,	44,	-1,	5,	-1,	31,	49,	61,	47,	-1,	4,	56,	-1,	-1,	-1,	62,	-1,	-1,	-1,	-1,	-1,	-1,	43,	23,	-1,	21,	37,	53,	45,	26,	-1,	-1,	25,	16,	-1,	19,	-1,	3,	17,	46,	42,	-1,	-1,	59,	1,	20,	-1,	34,	-1,	36,	-1,	38,	-1,	40,	-1,	2,	-1,	-1,	51,	-1,	60|
-1,	3,	41,	37,	14,	-1,	36,	32,	-1,	-1,	-1,	-1,	-1,	-1,	1,	58,	-1,	26,	13,	35,	-1,	45,	43,	33,	-1,	-1,	7,	5,	52,	-1,	55,	-1,	-1,	30,	24,	50,	-1,	-1,	39,	62,	-1,	-1,	9,	22,	16,	54,	19,	57,	42,	40,	-1,	61,	-1,	-1,	28,	-1,	-1,	-1,	-1,	46,	31,	10,	-1,	23|
-1,	-1,	-1,	20,	-1,	-1,	-1,	5,	47,	18,	39,	8,	14,	-1,	25,	49,	17,	30,	-1,	46,	-1,	7,	45,	-1,	37,	27,	9,	22,	57,	-1,	-1,	-1,	-1,	-1,	-1,	-1,	-1,	43,	62,	-1,	-1,	24,	63,	35,	-1,	-1,	50,	-1,	23,	13,	31,	19,	3,	55,	-1,	-1,	-1,	-1,	-1,	56,	2,	-1,	21,	40|
11,	-1,	-1,	-1,	52,	-1,	-1,	-1,	37,	-1,	32,	-1,	50,	48,	31,	-1,	42,	53,	-1,	-1,	-1,	41,	-1,	4,	63,	-1,	20,	33,	-1,	40,	21,	-1,	7,	55,	-1,	54,	-1,	-1,	12,	16,	18,	-1,	-1,	43,	5,	-1,	45,	15,	6,	47,	-1,	-1,	57,	25,	-1,	22,	-1,	-1,	-1,	62,	-1,	-1,	64,	-1|
-1,	43,	37,	63,	25,	13,	31,	28,	-1,	-1,	-1,	16,	-1,	-1,	53,	-1,	3,	-1,	-1,	-1,	-1,	-1,	-1,	23,	55,	-1,	-1,	-1,	-1,	-1,	7,	-1,	-1,	-1,	-1,	44,	-1,	-1,	-1,	17,	-1,	-1,	-1,	-1,	40,	-1,	-1,	-1,	-1,	-1,	49,	2,	-1,	10,	-1,	-1,	15,	58,	50,	45,	-1,	-1,	32,	34|
-1,	14,	-1,	-1,	-1,	-1,	50,	-1,	58,	-1,	-1,	-1,	-1,	-1,	-1,	60,	-1,	-1,	43,	-1,	-1,	56,	9,	35,	2,	-1,	-1,	-1,	59,	10,	-1,	-1,	-1,	22,	-1,	57,	-1,	45,	-1,	36,	21,	28,	-1,	-1,	34,	-1,	23,	-1,	-1,	-1,	26,	-1,	27,	-1,	-1,	52,	-1,	16,	-1,	-1,	-1,	17,	-1,	63|
-1,	19,	-1,	15,	-1,	3,	-1,	55,	-1,	-1,	-1,	4,	21,	-1,	9,	-1,	59,	-1,	-1,	-1,	2,	-1,	-1,	34,	-1,	35,	-1,	29,	42,	49,	41,	50,	-1,	-1,	-1,	-1,	-1,	18,	58,	-1,	20,	51,	-1,	-1,	-1,	-1,	-1,	52,	-1,	28,	-1,	32,	38,	53,	12,	-1,	-1,	-1,	46,	14,	27,	-1,	30,	31|
-1,	46,	62,	-1,	-1,	-1,	10,	-1,	-1,	-1,	2,	-1,	12,	-1,	-1,	-1,	-1,	-1,	-1,	-1,	38,	13,	14,	-1,	-1,	17,	-1,	11,	34,	53,	-1,	-1,	-1,	25,	-1,	28,	63,	59,	31,	-1,	-1,	44,	-1,	-1,	29,	6,	-1,	-1,	-1,	20,	5,	-1,	-1,	-1,	-1,	-1,	-1,	-1,	18,	-1,	-1,	39,	-1,	-1|
-1,	61,	39,	49,	-1,	-1,	54,	2,	-1,	24,	-1,	-1,	11,	-1,	-1,	-1,	-1,	-1,	52,	-1,	26,	64,	-1,	18,	25,	16,	45,	-1,	14,	-1,	60,	-1,	-1,	35,	-1,	1,	50,	-1,	46,	-1,	-1,	59,	-1,	-1,	-1,	-1,	-1,	33,	-1,	-1,	-1,	43,	-1,	4,	36,	30,	-1,	22,	-1,	10,	53,	-1,	6,	51|
-1,	60,	57,	27,	-1,	-1,	-1,	-1,	-1,	23,	6,	-1,	-1,	-1,	-1,	-1,	33,	58,	-1,	-1,	15,	31,	-1,	16,	28,	64,	-1,	12,	51,	-1,	-1,	-1,	-1,	11,	-1,	-1,	-1,	37,	21,	2,	-1,	-1,	36,	3,	56,	4,	32,	-1,	45,	29,	-1,	-1,	-1,	14,	-1,	-1,	-1,	-1,	47,	-1,	13,	52,	9,	24|];
