sudoku-ls/benchmarks_LEQ/INST_64x64/50/inst64x64_50_25.txt
8
1
15	-1	-1	-1	49	-1	-1	-1	-1	-1	-1	-1	52	-1	-1	59	41	-1	-1	-1	-1	26	47	-1	-1	5	17	62	-1	-1	-1	25	51	54	16	-1	-1	-1	-1	-1	-1	-1	28	-1	27	12	6	-1	56	53	-1	-1	-1	-1	34	-1	3	29	44	-1	10	64	-1	-1
-1	44	12	-1	58	50	51	-1	35	-1	-1	39	10	37	60	56	40	-1	46	62	5	-1	-1	-1	1	-1	55	-1	15	63	42	52	43	-1	-1	-1	-1	17	26	-1	-1	-1	14	-1	-1	-1	30	13	-1	-1	19	-1	-1	-1	-1	47	28	-1	36	20	41	-1	-1	-1
-1	-1	-1	-1	20	-1	43	52	-1	31	5	-1	-1	47	-1	-1	-1	24	58	-1	28	-1	-1	-1	-1	-1	-1	-1	-1	-1	57	27	36	-1	-1	49	-1	-1	-1	-1	-1	-1	-1	63	61	-1	-1	18	4	10	-1	1	-1	-1	-1	62	55	-1	-1	16	38	-1	-1	-1
-1	9	-1	-1	-1	-1	33	-1	-1	-1	-1	-1	24	2	46	-1	-1	-1	-1	18	-1	-1	-1	-1	41	12	-1	58	53	-1	38	37	60	-1	-1	-1	57	-1	-1	6	8	55	-1	54	52	11	-1	48	-1	-1	-1	29	-1	28	-1	39	30	17	22	-1	49	47	-1	27
14	27	16	-1	48	4	11	-1	29	-1	57	-1	-1	-1	18	-1	19	55	50	23	56	17	36	-1	20	24	-1	2	60	-1	35	-1	53	-1	30	-1	41	44	42	-1	-1	40	33	-1	21	-1	-1	-1	5	9	46	59	-1	-1	-1	-1	39	25	-1	-1	51	-1	8	-1
3	41	28	54	-1	-1	-1	-1	12	-1	55	23	-1	-1	-1	-1	-1	-1	34	10	-1	-1	38	-1	-1	-1	-1	-1	29	-1	-1	-1	45	-1	11	-1	39	-1	5	-1	47	46	-1	-1	22	-1	1	4	-1	-1	-1	-1	-1	30	15	35	-1	37	-1	-1	14	-1	50	26
-1	-1	-1	-1	-1	55	26	59	-1	-1	-1	50	-1	-1	17	-1	-1	-1	-1	14	-1	44	-1	-1	40	7	-1	-1	13	9	-1	-1	-1	-1	48	19	23	10	27	4	57	29	-1	-1	-1	-1	-1	35	-1	31	51	-1	-1	-1	21	-1	46	-1	34	-1	56	-1	-1	-1
57	30	34	18	23	22	7	25	-1	-1	64	-1	53	9	-1	40	-1	-1	2	-1	-1	54	48	-1	10	56	39	-1	-1	26	-1	-1	-1	-1	46	-1	28	63	29	-1	58	31	43	50	-1	-1	5	-1	-1	-1	-1	55	-1	-1	17	38	33	-1	59	52	62	-1	1	-1
8	17	-1	-1	61	35	38	-1	26	-1	-1	31	-1	-1	-1	-1	50	-1	-1	-1	46	-1	-1	-1	-1	47	-1	-1	54	42	-1	-1	59	-1	29	60	-1	-1	40	27	53	-1	25	13	32	3	62	22	-1	39	43	5	2	-1	-1	-1	6	-1	-1	-1	-1	-1	51	44
-1	31	53	41	55	-1	-1	30	-1	-1	22	-1	-1	17	-1	-1	21	60	-1	40	-1	-1	59	1	3	9	63	44	-1	-1	20	13	62	-1	-1	-1	-1	58	-1	-1	-1	-1	6	18	33	-1	43	29	36	-1	-1	-1	51	-1	42	12	-1	-1	-1	-1	-1	38	-1	39
-1	48	58	-1	2	-1	-1	39	13	-1	44	-1	32	45	-1	8	-1	-1	-1	51	-1	3	29	-1	34	-1	53	38	49	60	30	35	-1	64	36	46	-1	54	7	-1	12	-1	42	-1	57	19	20	-1	15	33	25	14	-1	9	27	-1	-1	31	43	22	-1	16	-1	-1
4	37	63	-1	13	-1	57	49	25	36	14	59	-1	43	-1	12	-1	45	54	61	27	30	2	52	-1	40	48	18	-1	29	50	-1	55	-1	-1	-1	11	-1	-1	19	60	-1	-1	7	-1	39	24	-1	44	62	47	-1	28	-1	53	-1	10	26	32	17	64	-1	-1	-1
27	50	54	9	-1	-1	60	7	62	5	23	51	-1	-1	-1	-1	-1	47	-1	-1	-1	11	57	-1	-1	6	10	-1	-1	-1	24	-1	-1	31	-1	-1	-1	39	-1	35	-1	-1	55	49	48	40	-1	-1	13	-1	41	-1	-1	-1	-1	-1	-1	15	-1	29	-1	2	14	28
-1	24	6	47	-1	-1	52	42	55	-1	50	60	-1	63	-1	64	-1	-1	33	-1	53	-1	41	-1	-1	11	56	25	37	-1	-1	-1	1	44	-1	-1	-1	-1	16	-1	-1	-1	-1	-1	-1	9	4	23	29	-1	57	-1	22	61	31	32	35	48	-1	-1	8	21	-1	20
32	-1	46	-1	56	44	-1	-1	7	-1	-1	38	-1	18	-1	-1	64	9	36	-1	31	-1	24	-1	61	55	16	-1	23	-1	4	58	-1	57	41	-1	42	21	8	-1	-1	-1	-1	-1	-1	2	-1	30	-1	19	6	50	-1	63	54	17	-1	-1	27	-1	5	12	-1	-1
-1	12	29	-1	64	26	21	-1	-1	-1	1	56	47	-1	57	35	58	-1	-1	8	55	42	-1	38	43	31	27	-1	-1	33	2	39	-1	-1	-1	-1	-1	-1	-1	-1	-1	45	-1	44	-1	-1	46	5	40	-1	52	60	-1	-1	4	7	-1	53	-1	-1	59	30	-1	-1
-1	52	22	7	18	54	-1	-1	-1	40	56	-1	-1	41	33	-1	-1	-1	63	-1	58	-1	50	-1	-1	-1	4	17	64	-1	10	15	21	39	47	20	-1	-1	-1	-1	62	14	-1	-1	-1	-1	26	-1	-1	-1	-1	-1	-1	19	8	61	53	-1	-1	27	36	46	28	-1
63	64	38	44	40	-1	41	56	-1	-1	-1	3	-1	34	-1	-1	16	51	-1	-1	-1	-1	62	-1	22	1	-1	-1	33	-1	31	-1	-1	-1	57	-1	-1	-1	-1	-1	-1	43	-1	-1	25	-1	-1	12	-1	7	11	-1	42	20	2	27	-1	-1	8	-1	58	-1	29	48
-1	39	-1	-1	-1	-1	23	-1	19	-1	36	-1	-1	60	21	-1	-1	-1	-1	-1	-1	-1	52	-1	57	-1	25	53	-1	46	-1	20	-1	-1	63	-1	56	8	-1	-1	29	-1	64	-1	-1	1	28	2	-1	-1	-1	6	-1	48	55	26	51	-1	-1	-1	-1	-1	43	-1
26	5	49	-1	-1	-1	55	-1	-1	35	-1	-1	9	14	47	-1	-1	61	39	-1	59	33	42	64	-1	8	-1	36	-1	50	19	-1	46	-1	-1	24	-1	-1	-1	-1	48	-1	-1	57	38	-1	-1	17	-1	-1	-1	-1	-1	-1	-1	3	-1	-1	-1	-1	-1	-1	54	1
-1	58	50	14	15	19	46	37	-1	-1	16	-1	-1	-1	22	-1	57	-1	-1	55	-1	-1	26	-1	-1	45	40	-1	39	24	56	-1	-1	1	64	-1	-1	61	-1	-1	-1	-1	32	-1	8	59	-1	-1	60	52	36	-1	33	44	-1	41	-1	-1	-1	12	-1	31	47	38
16	33	59	-1	-1	-1	-1	21	43	-1	-1	25	-1	61	2	55	-1	12	20	30	36	22	-1	8	54	14	-1	-1	-1	28	-1	-1	5	-1	-1	10	45	31	53	58	-1	-1	41	-1	-1	-1	-1	-1	50	-1	4	-1	-1	1	24	-1	26	39	-1	44	34	6	-1	-1
-1	-1	-1	-1	47	-1	-1	20	-1	44	-1	-1	59	24	-1	-1	31	-1	7	56	41	60	-1	-1	49	26	42	63	55	-1	-1	6	28	-1	38	34	-1	-1	48	-1	-1	-1	-1	53	58	45	9	50	-1	57	14	-1	40	-1	-1	25	64	-1	15	18	19	37	-1	10
43	-1	-1	57	-1	27	29	4	18	20	8	-1	31	26	63	15	9	38	21	44	-1	-1	53	-1	16	-1	51	48	-1	2	-1	-1	23	59	-1	-1	19	41	-1	-1	-1	-1	-1	-1	55	36	-1	-1	-1	35	32	17	54	-1	-1	-1	62	-1	45	49	3	11	-1	-1
12	34	47	-1	-1	29	37	-1	-1	4	17	-1	-1	8	36	53	18	56	-1	25	-1	58	-1	-1	-1	-1	-1	40	-1	7	-1	-1	10	61	-1	41	59	33	43	-1	1	-1	-1	-1	-1	-1	-1	14	24	23	50	44	-1	46	-1	42	-1	49	-1	-1	-1	-1	62	45
-1	32	-1	10	-1	-1	-1	43	-1	50	-1	-1	-1	31	12	-1	-1	34	-1	-1	-1	46	6	-1	-1	21	-1	-1	38	27	22	-1	-1	56	-1	18	35	47	28	63	54	37	19	2	4	-1	-1	42	-1	30	-1	15	-1	-1	41	-1	-1	-1	39	1	-1	-1	52	-1
46	62	-1	45	54	-1	-1	-1	-1	-1	-1	27	19	23	14	-1	-1	29	40	-1	16	20	15	-1	56	25	28	-1	36	-1	39	49	-1	-1	-1	-1	-1	52	60	21	63	3	48	51	18	41	-1	24	34	-1	-1	-1	-1	-1	-1	31	-1	5	-1	47	42	43	-1	-1
-1	55	-1	-1	19	-1	15	14	64	-1	-1	57	-1	-1	5	-1	-1	-1	59	12	-1	-1	-1	-1	18	-1	-1	-1	8	16	-1	31	25	2	-1	40	34	6	23	1	30	-1	-1	-1	46	-1	-1	-1	-1	60	56	13	10	-1	-1	-1	-1	33	29	63	-1	-1	-1	-1
51	-1	-1	-1	21	18	-1	-1	63	-1	9	-1	25	-1	15	-1	1	35	-1	-1	43	-1	-1	-1	-1	-1	-1	30	-1	57	-1	-1	16	-1	-1	4	49	22	-1	13	-1	-1	-1	60	-1	-1	29	53	-1	14	2	28	32	58	-1	-1	-1	-1	-1	37	23	56	31	-1
1	11	-1	25	-1	52	22	40	56	34	-1	29	18	-1	26	-1	48	-1	53	-1	61	63	-1	-1	-1	23	-1	6	41	-1	13	-1	37	7	-1	-1	-1	14	38	-1	55	-1	16	-1	43	50	-1	9	-1	59	39	-1	20	-1	62	-1	-1	3	10	28	60	57	-1	-1
2	20	4	-1	50	38	-1	-1	-1	46	-1	28	16	-1	7	43	-1	33	-1	-1	52	14	-1	-1	-1	-1	-1	42	19	1	-1	-1	-1	-1	-1	31	-1	-1	57	-1	-1	13	-1	21	15	-1	-1	27	55	-1	-1	-1	-1	29	45	-1	-1	51	6	59	26	-1	-1	64
-1	-1	23	35	33	-1	-1	-1	1	22	60	-1	6	59	-1	30	39	62	-1	45	7	37	32	41	-1	53	34	61	46	-1	14	51	-1	42	55	15	48	-1	20	29	44	10	-1	56	12	31	-1	-1	-1	-1	-1	-1	-1	38	-1	5	-1	27	-1	-1	50	-1	-1	18
-1	-1	14	23	6	28	-1	12	-1	60	47	17	-1	10	-1	32	-1	-1	29	-1	42	61	-1	43	62	-1	46	39	-1	30	-1	24	-1	5	-1	-1	38	-1	-1	-1	64	56	-1	9	-1	57	55	7	35	-1	-1	-1	-1	-1	13	36	-1	-1	-1	53	37	40	49	15
-1	-1	52	-1	-1	8	-1	-1	44	-1	-1	-1	-1	7	42	63	32	14	51	33	-1	24	-1	-1	-1	-1	-1	35	-1	45	16	10	15	29	-1	-1	-1	-1	54	43	17	12	-1	-1	-1	62	-1	-1	27	-1	55	-1	-1	-1	-1	-1	-1	60	64	-1	-1	-1	-1	-1
-1	10	51	2	-1	37	32	18	6	11	-1	-1	30	-1	3	36	62	-1	47	-1	8	4	-1	45	-1	58	12	49	-1	5	-1	-1	17	-1	-1	-1	22	-1	-1	20	-1	-1	35	-1	-1	-1	60	-1	-1	-1	-1	42	50	21	-1	9	29	-1	41	19	-1	63	57	-1
-1	47	42	11	-1	17	-1	-1	53	61	-1	-1	54	-1	23	20	-1	39	5	26	-1	-1	21	58	15	59	-1	-1	6	-1	-1	34	-1	-1	4	-1	31	-1	32	56	-1	-1	-1	-1	19	-1	3	-1	-1	2	-1	63	-1	45	-1	29	-1	36	62	9	-1	-1	-1	-1
54	-1	-1	-1	-1	-1	-1	3	52	16	-1	41	-1	25	27	-1	-1	-1	18	-1	17	55	12	-1	-1	-1	50	-1	-1	-1	29	-1	6	-1	9	62	21	57	63	-1	22	39	59	24	-1	-1	13	61	-1	64	-1	-1	60	-1	40	43	47	-1	-1	-1	45	28	20	35
-1	13	20	-1	-1	15	27	62	-1	-1	-1	-1	-1	-1	45	-1	63	44	41	-1	-1	36	-1	-1	21	-1	57	56	28	-1	25	61	18	-1	-1	-1	-1	53	35	-1	42	-1	30	-1	-1	58	14	-1	39	24	33	-1	17	59	22	23	31	-1	11	38	55	34	7	-1
-1	59	25	-1	1	-1	-1	45	49	-1	-1	-1	28	39	55	-1	-1	-1	22	53	48	-1	-1	27	-1	52	-1	-1	-1	-1	-1	-1	-1	60	42	-1	-1	-1	-1	3	41	-1	20	-1	-1	29	63	-1	-1	5	12	-1	-1	51	11	56	-1	43	24	6	-1	-1	-1	-1
41	-1	43	29	-1	-1	-1	22	-1	-1	13	15	51	-1	59	-1	6	28	35	34	54	-1	20	-1	-1	3	60	19	-1	-1	-1	33	47	-1	-1	48	8	30	64	-1	-1	-1	49	-1	-1	5	31	25	38	-1	-1	16	61	62	52	-1	50	23	26	32	-1	42	-1	17
-1	-1	-1	-1	-1	-1	-1	27	-1	43	-1	26	8	-1	-1	5	-1	31	3	-1	-1	-1	-1	57	-1	2	52	-1	50	25	12	-1	39	19	23	-1	62	-1	-1	28	-1	53	11	32	36	-1	-1	47	-1	55	21	18	-1	37	64	24	-1	45	-1	-1	48	7	56	-1
38	-1	-1	24	4	-1	25	-1	20	59	63	61	-1	-1	-1	37	56	-1	42	-1	-1	-1	60	-1	64	19	-1	-1	30	-1	-1	53	40	-1	50	14	3	-1	-1	47	-1	8	29	-1	9	-1	16	-1	-1	-1	22	12	5	-1	7	-1	-1	32	-1	-1	-1	-1	-1	-1
58	56	-1	-1	41	43	35	-1	-1	-1	53	18	15	-1	32	31	11	-1	44	-1	-1	38	51	-1	-1	-1	49	-1	-1	20	8	-1	-1	17	37	-1	-1	7	-1	-1	-1	62	-1	-1	1	63	-1	-1	3	-1	23	47	-1	-1	14	-1	16	-1	61	-1	-1	22	19	-1
52	-1	17	-1	45	-1	-1	31	-1	-1	-1	2	-1	16	-1	24	-1	27	-1	-1	33	-1	-1	62	5	29	32	-1	10	22	-1	41	-1	36	-1	-1	9	51	25	-1	-1	61	-1	-1	-1	30	7	26	57	38	-1	-1	-1	60	1	-1	49	42	35	-1	18	50	37	55
-1	7	36	46	-1	-1	-1	26	45	-1	49	-1	-1	-1	34	39	-1	-1	-1	-1	-1	-1	-1	21	-1	-1	-1	-1	35	-1	-1	-1	31	-1	-1	-1	-1	15	30	57	-1	-1	-1	-1	-1	28	-1	-1	-1	-1	-1	-1	-1	56	61	19	63	38	-1	-1	47	27	-1	-1
37	1	32	48	12	-1	47	16	11	55	-1	-1	-1	-1	-1	-1	26	54	17	41	49	-1	10	53	-1	-1	-1	-1	-1	-1	-1	4	-1	63	-1	5	60	64	-1	-1	-1	57	-1	-1	13	-1	-1	-1	9	-1	-1	-1	62	-1	-1	51	36	-1	-1	2	20	3	15	21
-1	18	-1	-1	-1	34	2	-1	-1	-1	3	-1	13	50	4	21	-1	-1	45	32	39	-1	-1	-1	-1	-1	36	-1	-1	56	28	7	27	8	43	-1	46	20	-1	-1	-1	64	58	-1	35	55	-1	-1	30	63	-1	25	-1	31	44	10	14	-1	60	-1	6	-1	-1	-1
-1	53	19	-1	-1	21	-1	61	36	-1	52	54	60	27	64	1	34	8	55	-1	50	25	63	7	-1	-1	43	-1	-1	-1	-1	-1	-1	-1	-1	-1	26	-1	-1	-1	4	-1	-1	-1	24	37	-1	45	-1	41	16	46	-1	15	-1	-1	-1	10	9	-1	-1	5	59	30
13	-1	31	21	-1	-1	9	19	-1	57	25	-1	-1	-1	11	28	38	-1	4	17	-1	23	1	46	-1	10	-1	20	12	-1	-1	22	-1	-1	60	-1	-1	-1	-1	5	50	-1	-1	58	64	-1	-1	-1	53	-1	-1	-1	-1	54	29	-1	-1	-1	-1	48	16	-1	61	49
-1	22	-1	55	-1	-1	-1	-1	24	41	48	-1	-1	-1	-1	-1	-1	52	49	-1	64	-1	7	20	-1	13	30	60	-1	-1	18	-1	-1	45	-1	53	-1	-1	-1	31	37	63	12	-1	11	-1	-1	34	25	32	-1	23	-1	5	39	58	-1	-1	-1	-1	43	-1	33	57
-1	42	-1	-1	53	51	-1	-1	-1	13	12	-1	-1	29	37	-1	60	-1	-1	-1	-1	-1	-1	31	-1	28	-1	24	56	19	-1	-1	58	-1	33	7	-1	4	3	-1	-1	-1	-1	-1	-1	48	61	-1	-1	17	-1	-1	46	-1	-1	-1	-1	-1	1	54	-1	9	-1	52
-1	-1	-1	-1	26	-1	-1	8	-1	7	20	-1	-1	-1	-1	-1	44	10	14	42	3	12	-1	-1	31	57	11	47	25	58	48	-1	-1	28	-1	-1	64	-1	56	-1	45	6	24	30	60	33	52	-1	-1	1	-1	9	41	35	50	-1	22	34	-1	-1	-1	59	13	4
-1	-1	-1	33	46	-1	45	-1	-1	-1	30	53	-1	-1	-1	52	61	-1	-1	50	57	5	-1	59	-1	39	1	-1	44	36	-1	40	-1	18	17	63	20	23	37	9	-1	25	10	-1	-1	-1	-1	49	62	-1	-1	64	-1	7	-1	-1	27	-1	3	42	15	-1	12	-1
64	-1	7	1	-1	12	24	58	-1	26	18	9	-1	42	-1	-1	-1	-1	-1	-1	-1	34	27	56	-1	61	2	-1	63	32	15	-1	-1	6	35	8	44	-1	-1	-1	14	-1	-1	-1	-1	21	53	-1	31	-1	59	-1	52	43	-1	55	45	-1	5	-1	-1	29	41	-1
10	63	-1	52	44	57	-1	-1	31	-1	-1	-1	35	-1	-1	-1	-1	41	-1	28	32	-1	-1	24	-1	43	23	9	-1	-1	-1	45	-1	14	-1	-1	-1	-1	19	55	-1	-1	46	-1	7	-1	-1	-1	-1	12	34	22	36	27	38	33	-1	64	2	30	11	51	39	60
25	3	-1	37	-1	48	36	32	34	8	59	64	-1	15	1	-1	53	-1	-1	-1	-1	45	43	33	6	49	7	-1	-1	51	-1	17	29	-1	24	50	2	12	-1	62	27	-1	9	22	-1	-1	19	-1	42	-1	-1	-1	-1	-1	28	60	-1	21	56	-1	-1	-1	-1	23
59	16	-1	-1	-1	-1	-1	5	-1	-1	-1	8	-1	-1	-1	49	-1	30	-1	46	29	7	45	32	37	-1	-1	-1	57	-1	54	44	48	41	-1	64	52	-1	-1	-1	26	24	-1	-1	42	53	-1	58	-1	13	-1	19	-1	-1	-1	-1	61	11	38	56	-1	4	-1	-1
-1	51	-1	-1	52	-1	-1	-1	-1	17	32	-1	-1	-1	31	10	42	53	8	-1	-1	-1	-1	4	-1	-1	-1	-1	26	-1	21	-1	7	-1	-1	-1	-1	13	12	-1	18	1	-1	-1	5	-1	45	15	6	-1	-1	-1	57	25	56	22	23	59	28	-1	29	-1	-1	3
-1	-1	-1	63	25	13	-1	-1	59	64	35	16	36	-1	53	-1	-1	57	-1	6	24	27	-1	23	55	-1	-1	52	-1	-1	7	-1	-1	-1	20	44	-1	26	-1	17	-1	-1	-1	12	40	-1	41	-1	11	-1	49	-1	8	-1	-1	-1	-1	58	50	45	33	-1	32	34
44	-1	48	-1	38	6	-1	-1	-1	3	29	-1	-1	-1	62	-1	55	-1	43	-1	12	56	-1	-1	-1	15	24	31	59	-1	32	30	19	-1	-1	-1	-1	-1	61	36	21	-1	-1	-1	-1	46	-1	-1	-1	-1	26	-1	27	-1	37	-1	-1	-1	20	25	-1	-1	-1	63
-1	19	56	-1	22	-1	64	55	5	33	-1	4	21	-1	-1	-1	-1	-1	-1	39	2	62	-1	-1	-1	35	-1	29	42	49	41	50	24	-1	-1	23	-1	-1	58	-1	-1	-1	-1	-1	-1	10	-1	-1	-1	28	17	32	38	-1	-1	16	-1	-1	-1	-1	27	36	-1	31
-1	-1	62	26	8	-1	10	-1	-1	30	2	42	12	-1	52	45	-1	50	-1	-1	38	-1	-1	51	-1	-1	-1	-1	34	-1	-1	-1	32	25	-1	28	-1	59	31	33	-1	-1	-1	-1	-1	6	-1	-1	-1	20	-1	-1	-1	-1	9	-1	19	57	18	-1	-1	39	55	43
29	61	39	-1	32	41	-1	2	27	-1	-1	-1	-1	-1	-1	-1	-1	5	-1	21	-1	64	40	-1	25	-1	45	-1	-1	47	60	19	9	-1	56	-1	-1	3	-1	42	-1	-1	7	55	17	13	-1	33	-1	15	62	43	44	4	36	-1	37	22	12	-1	53	-1	6	51
42	-1	-1	27	-1	40	-1	-1	22	-1	6	-1	-1	20	-1	41	33	-1	-1	-1	15	31	-1	16	28	64	-1	-1	51	-1	46	-1	-1	-1	-1	-1	5	37	-1	-1	-1	30	36	3	-1	-1	32	-1	45	29	54	39	-1	-1	59	-1	-1	-1	47	-1	13	52	-1	-1
64 
50 39 17 13
1 41 23 6
4 36 62 31
1 30 39 42
26 27 23 55
18 22 42 21
5 46 37 5
38 52 26 57
47 3 59 41
9 49 18 11
25 19 51 21
14 40 43 58
19 8 27 59
19 40 15 7
7 62 19 18
35 64 58 40
11 18 6 8
2 63 9 58
13 16 4 27
28 62 56 57
57 63 3 3
28 54 13 24
52 16 35 34
6 53 53 51
21 18 55 36
35 31 25 55
36 43 58 37
14 10 34 45
41 5 17 20
63 56 37 17
6 30 37 52
27 10 20 57
57 3 29 31
44 28 43 54
46 33 19 60
43 50 8 31
27 11 1 21
50 30 13 52
34 36 60 43
50 47 24 22
58 22 42 62
30 18 6 6
61 11 52 15
27 35 42 8
18 21 14 25
46 41 58 12
51 54 34 55
22 7 55 38
14 59 28 22
43 8 36 22
33 59 37 46
5 40 15 41
13 14 62 30
56 46 7 49
25 12 64 13
62 32 12 52
47 5 64 3
12 62 20 55
49 6 45 36
24 32 57 55
34 62 23 31
58 60 55 19
40 7 62 37
35 14 27 51
